8
0, 731, 1072, 729, 406, 721, 667, 1117
731, 0, 544, 507, 769, 11, 486, 701
1072, 544, 0, 396, 881, 554, 445, 196
729, 507, 396, 0, 485, 510, 61, 391
406, 769, 881, 485, 0, 765, 436, 858
721, 11, 554, 510, 765, 0, 487, 709
667, 486, 445, 61, 436, 487, 0, 451
1117, 701, 196, 391, 858, 709, 451, 0
